g3 1 1 0	# problem unknown
 101 200 1 0 1 	# vars, constraints, objectives, general inequalities, equalities  
 200 1 	# nonlinear constraints, objectives
 0 0	# network constraints: nonlinear, linear
 100 4 3 	# nonlinear vars in constraints, objectives, both
 0 0 0 1	# linear network variables; functions; arith, flags
 0 0 0 0 0 	# discrete variables: binary, integer, nonlinear (b,c,o)
 595 4 	# nonzeros in Jacobian, obj. gradient
 0 0	# max name lengths: constraints, variables
 0 0 0 0 0	# common exprs: b,c,o,c1,o1
C0	#unknown_consq[1]
o0
o2
v1
v2
o2
n3.0
o2
v1
v0
C1	#unknown_consq[2]
o0
o2
v1
v33
o2
n2.0
o2
v2
v0
C2	#unknown_consq[3]
o0
o2
v1
v44
o2
n1.66666666667
o2
v33
v0
C3	#unknown_consq[4]
o0
o2
v1
v55
o2
n1.5
o2
v44
v0
C4	#unknown_consq[5]
o0
o2
v1
v66
o2
n1.4
o2
v55
v0
C5	#unknown_consq[6]
o0
o2
v1
v77
o2
n1.33333333333
o2
v66
v0
C6	#unknown_consq[7]
o0
o2
v1
v88
o2
n1.28571428571
o2
v77
v0
C7	#unknown_consq[8]
o0
o2
v1
v99
o2
n1.25
o2
v88
v0
C8	#unknown_consq[9]
o0
o2
v1
v3
o2
n1.22222222222
o2
v99
v0
C9	#unknown_consq[10]
o0
o2
v1
v4
o2
n1.2
o2
v3
v0
C10	#unknown_consq[11]
o0
o2
v1
v5
o2
n1.18181818182
o2
v4
v0
C11	#unknown_consq[12]
o0
o2
v1
v6
o2
n1.16666666667
o2
v5
v0
C12	#unknown_consq[13]
o0
o2
v1
v7
o2
n1.15384615385
o2
v6
v0
C13	#unknown_consq[14]
o0
o2
v1
v8
o2
n1.14285714286
o2
v7
v0
C14	#unknown_consq[15]
o0
o2
v1
v9
o2
n1.13333333333
o2
v8
v0
C15	#unknown_consq[16]
o0
o2
v1
v10
o2
n1.125
o2
v9
v0
C16	#unknown_consq[17]
o0
o2
v1
v11
o2
n1.11764705882
o2
v10
v0
C17	#unknown_consq[18]
o0
o2
v1
v12
o2
n1.11111111111
o2
v11
v0
C18	#unknown_consq[19]
o0
o2
v1
v13
o2
n1.10526315789
o2
v12
v0
C19	#unknown_consq[20]
o0
o2
v1
v14
o2
n1.1
o2
v13
v0
C20	#unknown_consq[21]
o0
o2
v1
v15
o2
n1.09523809524
o2
v14
v0
C21	#unknown_consq[22]
o0
o2
v1
v16
o2
n1.09090909091
o2
v15
v0
C22	#unknown_consq[23]
o0
o2
v1
v17
o2
n1.08695652174
o2
v16
v0
C23	#unknown_consq[24]
o0
o2
v1
v18
o2
n1.08333333333
o2
v17
v0
C24	#unknown_consq[25]
o0
o2
v1
v19
o2
n1.08
o2
v18
v0
C25	#unknown_consq[26]
o0
o2
v1
v20
o2
n1.07692307692
o2
v19
v0
C26	#unknown_consq[27]
o0
o2
v1
v21
o2
n1.07407407407
o2
v20
v0
C27	#unknown_consq[28]
o0
o2
v1
v22
o2
n1.07142857143
o2
v21
v0
C28	#unknown_consq[29]
o0
o2
v1
v23
o2
n1.06896551724
o2
v22
v0
C29	#unknown_consq[30]
o0
o2
v1
v24
o2
n1.06666666667
o2
v23
v0
C30	#unknown_consq[31]
o0
o2
v1
v25
o2
n1.06451612903
o2
v24
v0
C31	#unknown_consq[32]
o0
o2
v1
v26
o2
n1.0625
o2
v25
v0
C32	#unknown_consq[33]
o0
o2
v1
v27
o2
n1.06060606061
o2
v26
v0
C33	#unknown_consq[34]
o0
o2
v1
v28
o2
n1.05882352941
o2
v27
v0
C34	#unknown_consq[35]
o0
o2
v1
v29
o2
n1.05714285714
o2
v28
v0
C35	#unknown_consq[36]
o0
o2
v1
v30
o2
n1.05555555556
o2
v29
v0
C36	#unknown_consq[37]
o0
o2
v1
v31
o2
n1.05405405405
o2
v30
v0
C37	#unknown_consq[38]
o0
o2
v1
v32
o2
n1.05263157895
o2
v31
v0
C38	#unknown_consq[39]
o0
o2
v1
v34
o2
n1.05128205128
o2
v32
v0
C39	#unknown_consq[40]
o0
o2
v1
v35
o2
n1.05
o2
v34
v0
C40	#unknown_consq[41]
o0
o2
v1
v36
o2
n1.0487804878
o2
v35
v0
C41	#unknown_consq[42]
o0
o2
v1
v37
o2
n1.04761904762
o2
v36
v0
C42	#unknown_consq[43]
o0
o2
v1
v38
o2
n1.04651162791
o2
v37
v0
C43	#unknown_consq[44]
o0
o2
v1
v39
o2
n1.04545454545
o2
v38
v0
C44	#unknown_consq[45]
o0
o2
v1
v40
o2
n1.04444444444
o2
v39
v0
C45	#unknown_consq[46]
o0
o2
v1
v41
o2
n1.04347826087
o2
v40
v0
C46	#unknown_consq[47]
o0
o2
v1
v42
o2
n1.04255319149
o2
v41
v0
C47	#unknown_consq[48]
o0
o2
v1
v43
o2
n1.04166666667
o2
v42
v0
C48	#unknown_consq[49]
o0
o2
v1
v45
o2
n1.04081632653
o2
v43
v0
C49	#unknown_consq[50]
o0
o2
v1
v46
o2
n1.04
o2
v45
v0
C50	#unknown_consq[51]
o0
o2
v1
v47
o2
n1.03921568627
o2
v46
v0
C51	#unknown_consq[52]
o0
o2
v1
v48
o2
n1.03846153846
o2
v47
v0
C52	#unknown_consq[53]
o0
o2
v1
v49
o2
n1.03773584906
o2
v48
v0
C53	#unknown_consq[54]
o0
o2
v1
v50
o2
n1.03703703704
o2
v49
v0
C54	#unknown_consq[55]
o0
o2
v1
v51
o2
n1.03636363636
o2
v50
v0
C55	#unknown_consq[56]
o0
o2
v1
v52
o2
n1.03571428571
o2
v51
v0
C56	#unknown_consq[57]
o0
o2
v1
v53
o2
n1.0350877193
o2
v52
v0
C57	#unknown_consq[58]
o0
o2
v1
v54
o2
n1.03448275862
o2
v53
v0
C58	#unknown_consq[59]
o0
o2
v1
v56
o2
n1.03389830508
o2
v54
v0
C59	#unknown_consq[60]
o0
o2
v1
v57
o2
n1.03333333333
o2
v56
v0
C60	#unknown_consq[61]
o0
o2
v1
v58
o2
n1.03278688525
o2
v57
v0
C61	#unknown_consq[62]
o0
o2
v1
v59
o2
n1.03225806452
o2
v58
v0
C62	#unknown_consq[63]
o0
o2
v1
v60
o2
n1.03174603175
o2
v59
v0
C63	#unknown_consq[64]
o0
o2
v1
v61
o2
n1.03125
o2
v60
v0
C64	#unknown_consq[65]
o0
o2
v1
v62
o2
n1.03076923077
o2
v61
v0
C65	#unknown_consq[66]
o0
o2
v1
v63
o2
n1.0303030303
o2
v62
v0
C66	#unknown_consq[67]
o0
o2
v1
v64
o2
n1.02985074627
o2
v63
v0
C67	#unknown_consq[68]
o0
o2
v1
v65
o2
n1.02941176471
o2
v64
v0
C68	#unknown_consq[69]
o0
o2
v1
v67
o2
n1.02898550725
o2
v65
v0
C69	#unknown_consq[70]
o0
o2
v1
v68
o2
n1.02857142857
o2
v67
v0
C70	#unknown_consq[71]
o0
o2
v1
v69
o2
n1.02816901408
o2
v68
v0
C71	#unknown_consq[72]
o0
o2
v1
v70
o2
n1.02777777778
o2
v69
v0
C72	#unknown_consq[73]
o0
o2
v1
v71
o2
n1.02739726027
o2
v70
v0
C73	#unknown_consq[74]
o0
o2
v1
v72
o2
n1.02702702703
o2
v71
v0
C74	#unknown_consq[75]
o0
o2
v1
v73
o2
n1.02666666667
o2
v72
v0
C75	#unknown_consq[76]
o0
o2
v1
v74
o2
n1.02631578947
o2
v73
v0
C76	#unknown_consq[77]
o0
o2
v1
v75
o2
n1.02597402597
o2
v74
v0
C77	#unknown_consq[78]
o0
o2
v1
v76
o2
n1.02564102564
o2
v75
v0
C78	#unknown_consq[79]
o0
o2
v1
v78
o2
n1.0253164557
o2
v76
v0
C79	#unknown_consq[80]
o0
o2
v1
v79
o2
n1.025
o2
v78
v0
C80	#unknown_consq[81]
o0
o2
v1
v80
o2
n1.02469135802
o2
v79
v0
C81	#unknown_consq[82]
o0
o2
v1
v81
o2
n1.0243902439
o2
v80
v0
C82	#unknown_consq[83]
o0
o2
v1
v82
o2
n1.02409638554
o2
v81
v0
C83	#unknown_consq[84]
o0
o2
v1
v83
o2
n1.02380952381
o2
v82
v0
C84	#unknown_consq[85]
o0
o2
v1
v84
o2
n1.02352941176
o2
v83
v0
C85	#unknown_consq[86]
o0
o2
v1
v85
o2
n1.02325581395
o2
v84
v0
C86	#unknown_consq[87]
o0
o2
v1
v86
o2
n1.02298850575
o2
v85
v0
C87	#unknown_consq[88]
o0
o2
v1
v87
o2
n1.02272727273
o2
v86
v0
C88	#unknown_consq[89]
o0
o2
v1
v89
o2
n1.02247191011
o2
v87
v0
C89	#unknown_consq[90]
o0
o2
v1
v90
o2
n1.02222222222
o2
v89
v0
C90	#unknown_consq[91]
o0
o2
v1
v91
o2
n1.02197802198
o2
v90
v0
C91	#unknown_consq[92]
o0
o2
v1
v92
o2
n1.02173913043
o2
v91
v0
C92	#unknown_consq[93]
o0
o2
v1
v93
o2
n1.02150537634
o2
v92
v0
C93	#unknown_consq[94]
o0
o2
v1
v94
o2
n1.02127659574
o2
v93
v0
C94	#unknown_consq[95]
o0
o2
v1
v95
o2
n1.02105263158
o2
v94
v0
C95	#unknown_consq[96]
o0
o2
v1
v96
o2
n1.02083333333
o2
v95
v0
C96	#unknown_consq[97]
o0
o2
v1
v97
o2
n1.0206185567
o2
v96
v0
C97	#unknown_consq[98]
o0
o2
v1
v98
o2
n1.02040816327
o2
v97
v0
C98	#unknown_consq[99]
o0
o2
v1
v0
o2
n1.0202020202
o2
v98
v0
C99	#unknown_conss[1]
o5
o41
v1
n2
C100	#unknown_conss[2]
o5
o41
v2
n2
C101	#unknown_conss[3]
o5
o41
v33
n2
C102	#unknown_conss[4]
o5
o41
v44
n2
C103	#unknown_conss[5]
o5
o41
v55
n2
C104	#unknown_conss[6]
o5
o41
v66
n2
C105	#unknown_conss[7]
o5
o41
v77
n2
C106	#unknown_conss[8]
o5
o41
v88
n2
C107	#unknown_conss[9]
o5
o41
v99
n2
C108	#unknown_conss[10]
o5
o41
v3
n2
C109	#unknown_conss[11]
o5
o41
v4
n2
C110	#unknown_conss[12]
o5
o41
v5
n2
C111	#unknown_conss[13]
o5
o41
v6
n2
C112	#unknown_conss[14]
o5
o41
v7
n2
C113	#unknown_conss[15]
o5
o41
v8
n2
C114	#unknown_conss[16]
o5
o41
v9
n2
C115	#unknown_conss[17]
o5
o41
v10
n2
C116	#unknown_conss[18]
o5
o41
v11
n2
C117	#unknown_conss[19]
o5
o41
v12
n2
C118	#unknown_conss[20]
o5
o41
v13
n2
C119	#unknown_conss[21]
o5
o41
v14
n2
C120	#unknown_conss[22]
o5
o41
v15
n2
C121	#unknown_conss[23]
o5
o41
v16
n2
C122	#unknown_conss[24]
o5
o41
v17
n2
C123	#unknown_conss[25]
o5
o41
v18
n2
C124	#unknown_conss[26]
o5
o41
v19
n2
C125	#unknown_conss[27]
o5
o41
v20
n2
C126	#unknown_conss[28]
o5
o41
v21
n2
C127	#unknown_conss[29]
o5
o41
v22
n2
C128	#unknown_conss[30]
o5
o41
v23
n2
C129	#unknown_conss[31]
o5
o41
v24
n2
C130	#unknown_conss[32]
o5
o41
v25
n2
C131	#unknown_conss[33]
o5
o41
v26
n2
C132	#unknown_conss[34]
o5
o41
v27
n2
C133	#unknown_conss[35]
o5
o41
v28
n2
C134	#unknown_conss[36]
o5
o41
v29
n2
C135	#unknown_conss[37]
o5
o41
v30
n2
C136	#unknown_conss[38]
o5
o41
v31
n2
C137	#unknown_conss[39]
o5
o41
v32
n2
C138	#unknown_conss[40]
o5
o41
v34
n2
C139	#unknown_conss[41]
o5
o41
v35
n2
C140	#unknown_conss[42]
o5
o41
v36
n2
C141	#unknown_conss[43]
o5
o41
v37
n2
C142	#unknown_conss[44]
o5
o41
v38
n2
C143	#unknown_conss[45]
o5
o41
v39
n2
C144	#unknown_conss[46]
o5
o41
v40
n2
C145	#unknown_conss[47]
o5
o41
v41
n2
C146	#unknown_conss[48]
o5
o41
v42
n2
C147	#unknown_conss[49]
o5
o41
v43
n2
C148	#unknown_conss[50]
o5
o41
v45
n2
C149	#unknown_conss[51]
o5
o41
v46
n2
C150	#unknown_conss[52]
o5
o41
v47
n2
C151	#unknown_conss[53]
o5
o41
v48
n2
C152	#unknown_conss[54]
o5
o41
v49
n2
C153	#unknown_conss[55]
o5
o41
v50
n2
C154	#unknown_conss[56]
o5
o41
v51
n2
C155	#unknown_conss[57]
o5
o41
v52
n2
C156	#unknown_conss[58]
o5
o41
v53
n2
C157	#unknown_conss[59]
o5
o41
v54
n2
C158	#unknown_conss[60]
o5
o41
v56
n2
C159	#unknown_conss[61]
o5
o41
v57
n2
C160	#unknown_conss[62]
o5
o41
v58
n2
C161	#unknown_conss[63]
o5
o41
v59
n2
C162	#unknown_conss[64]
o5
o41
v60
n2
C163	#unknown_conss[65]
o5
o41
v61
n2
C164	#unknown_conss[66]
o5
o41
v62
n2
C165	#unknown_conss[67]
o5
o41
v63
n2
C166	#unknown_conss[68]
o5
o41
v64
n2
C167	#unknown_conss[69]
o5
o41
v65
n2
C168	#unknown_conss[70]
o5
o41
v67
n2
C169	#unknown_conss[71]
o5
o41
v68
n2
C170	#unknown_conss[72]
o5
o41
v69
n2
C171	#unknown_conss[73]
o5
o41
v70
n2
C172	#unknown_conss[74]
o5
o41
v71
n2
C173	#unknown_conss[75]
o5
o41
v72
n2
C174	#unknown_conss[76]
o5
o41
v73
n2
C175	#unknown_conss[77]
o5
o41
v74
n2
C176	#unknown_conss[78]
o5
o41
v75
n2
C177	#unknown_conss[79]
o5
o41
v76
n2
C178	#unknown_conss[80]
o5
o41
v78
n2
C179	#unknown_conss[81]
o5
o41
v79
n2
C180	#unknown_conss[82]
o5
o41
v80
n2
C181	#unknown_conss[83]
o5
o41
v81
n2
C182	#unknown_conss[84]
o5
o41
v82
n2
C183	#unknown_conss[85]
o5
o41
v83
n2
C184	#unknown_conss[86]
o5
o41
v84
n2
C185	#unknown_conss[87]
o5
o41
v85
n2
C186	#unknown_conss[88]
o5
o41
v86
n2
C187	#unknown_conss[89]
o5
o41
v87
n2
C188	#unknown_conss[90]
o5
o41
v89
n2
C189	#unknown_conss[91]
o5
o41
v90
n2
C190	#unknown_conss[92]
o5
o41
v91
n2
C191	#unknown_conss[93]
o5
o41
v92
n2
C192	#unknown_conss[94]
o5
o41
v93
n2
C193	#unknown_conss[95]
o5
o41
v94
n2
C194	#unknown_conss[96]
o5
o41
v95
n2
C195	#unknown_conss[97]
o5
o41
v96
n2
C196	#unknown_conss[98]
o5
o41
v97
n2
C197	#unknown_conss[99]
o5
o41
v98
n2
C198	#unknown_conss[100]
o5
o41
v0
n2
C199	#unknown_eq
o5
o0
v1
v0
n2
O0 0
o2
n0.5
o5
o0
o2
o0
v1
o2
n-1
v0
v2
v100
n2
x100
0 0.5
1 0.5
2 0.5
3 0.5
4 0.5
5 0.5
6 0.5
7 0.5
8 0.5
9 0.5
10 0.5
11 0.5
12 0.5
13 0.5
14 0.5
15 0.5
16 0.5
17 0.5
18 0.5
19 0.5
20 0.5
21 0.5
22 0.5
23 0.5
24 0.5
25 0.5
26 0.5
27 0.5
28 0.5
29 0.5
30 0.5
31 0.5
32 0.5
33 0.5
34 0.5
35 0.5
36 0.5
37 0.5
38 0.5
39 0.5
40 0.5
41 0.5
42 0.5
43 0.5
44 0.5
45 0.5
46 0.5
47 0.5
48 0.5
49 0.5
50 0.5
51 0.5
52 0.5
53 0.5
54 0.5
55 0.5
56 0.5
57 0.5
58 0.5
59 0.5
60 0.5
61 0.5
62 0.5
63 0.5
64 0.5
65 0.5
66 0.5
67 0.5
68 0.5
69 0.5
70 0.5
71 0.5
72 0.5
73 0.5
74 0.5
75 0.5
76 0.5
77 0.5
78 0.5
79 0.5
80 0.5
81 0.5
82 0.5
83 0.5
84 0.5
85 0.5
86 0.5
87 0.5
88 0.5
89 0.5
90 0.5
91 0.5
92 0.5
93 0.5
94 0.5
95 0.5
96 0.5
97 0.5
98 0.5
99 0.5
r
1  0.0
1  0.0
1  0.0
1  0.0
1  0.0
1  0.0
1  0.0
1  0.0
1  0.0
1  0.0
1  0.0
1  0.0
1  0.0
1  0.0
1  0.0
1  0.0
1  0.0
1  0.0
1  0.0
1  0.0
1  0.0
1  0.0
1  0.0
1  0.0
1  0.0
1  0.0
1  0.0
1  0.0
1  0.0
1  0.0
1  0.0
1  0.0
1  0.0
1  0.0
1  0.0
1  0.0
1  0.0
1  0.0
1  0.0
1  0.0
1  0.0
1  0.0
1  0.0
1  0.0
1  0.0
1  0.0
1  0.0
1  0.0
1  0.0
1  0.0
1  0.0
1  0.0
1  0.0
1  0.0
1  0.0
1  0.0
1  0.0
1  0.0
1  0.0
1  0.0
1  0.0
1  0.0
1  0.0
1  0.0
1  0.0
1  0.0
1  0.0
1  0.0
1  0.0
1  0.0
1  0.0
1  0.0
1  0.0
1  0.0
1  0.0
1  0.0
1  0.0
1  0.0
1  0.0
1  0.0
1  0.0
1  0.0
1  0.0
1  0.0
1  0.0
1  0.0
1  0.0
1  0.0
1  0.0
1  0.0
1  0.0
1  0.0
1  0.0
1  0.0
1  0.0
1  0.0
1  0.0
1  0.0
1  0.0
1  0.5
1  0.5
1  0.5
1  0.5
1  0.5
1  0.5
1  0.5
1  0.5
1  0.5
1  0.5
1  0.5
1  0.5
1  0.5
1  0.5
1  0.5
1  0.5
1  0.5
1  0.5
1  0.5
1  0.5
1  0.5
1  0.5
1  0.5
1  0.5
1  0.5
1  0.5
1  0.5
1  0.5
1  0.5
1  0.5
1  0.5
1  0.5
1  0.5
1  0.5
1  0.5
1  0.5
1  0.5
1  0.5
1  0.5
1  0.5
1  0.5
1  0.5
1  0.5
1  0.5
1  0.5
1  0.5
1  0.5
1  0.5
1  0.5
1  0.5
1  0.5
1  0.5
1  0.5
1  0.5
1  0.5
1  0.5
1  0.5
1  0.5
1  0.5
1  0.5
1  0.5
1  0.5
1  0.5
1  0.5
1  0.5
1  0.5
1  0.5
1  0.5
1  0.5
1  0.5
1  0.5
1  0.5
1  0.5
1  0.5
1  0.5
1  0.5
1  0.5
1  0.5
1  0.5
1  0.5
1  0.5
1  0.5
1  0.5
1  0.5
1  0.5
1  0.5
1  0.5
1  0.5
1  0.5
1  0.5
1  0.5
1  0.5
1  0.5
1  0.5
1  0.5
1  0.5
1  0.5
1  0.5
1  0.5
1  0.5
4 1.0 
b
0 -1 100
0 -1 1
0 -1 2
0 -1 10
0 -1 11
0 -1 12
0 -1 13
0 -1 14
0 -1 15
0 -1 16
0 -1 17
0 -1 18
0 -1 19
0 -1 20
0 -1 21
0 -1 22
0 -1 23
0 -1 24
0 -1 25
0 -1 26
0 -1 27
0 -1 28
0 -1 29
0 -1 30
0 -1 31
0 -1 32
0 -1 33
0 -1 34
0 -1 35
0 -1 36
0 -1 37
0 -1 38
0 -1 39
0 -1 3
0 -1 40
0 -1 41
0 -1 42
0 -1 43
0 -1 44
0 -1 45
0 -1 46
0 -1 47
0 -1 48
0 -1 49
0 -1 4
0 -1 50
0 -1 51
0 -1 52
0 -1 53
0 -1 54
0 -1 55
0 -1 56
0 -1 57
0 -1 58
0 -1 59
0 -1 5
0 -1 60
0 -1 61
0 -1 62
0 -1 63
0 -1 64
0 -1 65
0 -1 66
0 -1 67
0 -1 68
0 -1 69
0 -1 6
0 -1 70
0 -1 71
0 -1 72
0 -1 73
0 -1 74
0 -1 75
0 -1 76
0 -1 77
0 -1 78
0 -1 79
0 -1 7
0 -1 80
0 -1 81
0 -1 82
0 -1 83
0 -1 84
0 -1 85
0 -1 86
0 -1 87
0 -1 88
0 -1 89
0 -1 8
0 -1 90
0 -1 91
0 -1 92
0 -1 93
0 -1 94
0 -1 95
0 -1 96
0 -1 97
0 -1 98
0 -1 99
0 -1 9
3
k100
101
202
205
208
211
214
217
220
223
226
229
232
235
238
241
244
247
250
253
256
259
262
265
268
271
274
277
280
283
286
289
292
295
298
301
304
307
310
313
316
319
322
325
328
331
334
337
340
343
346
349
352
355
358
361
364
367
370
373
376
379
382
385
388
391
394
397
400
403
406
409
412
415
418
421
424
427
430
433
436
439
442
445
448
451
454
457
460
463
466
469
472
475
478
481
484
487
490
493
496
J0 4
0 0
1 0
2 0
100 1.0
J1 5
0 0
1 0
2 0
33 0
100 1.0
J2 5
0 0
1 0
33 0
44 0
100 1.0
J3 5
0 0
1 0
44 0
55 0
100 1.0
J4 5
0 0
1 0
55 0
66 0
100 1.0
J5 5
0 0
1 0
66 0
77 0
100 1.0
J6 5
0 0
1 0
77 0
88 0
100 1.0
J7 5
0 0
1 0
88 0
99 0
100 1.0
J8 5
0 0
3 0
1 0
99 0
100 1.0
J9 5
0 0
3 0
4 0
1 0
100 1.0
J10 5
0 0
4 0
5 0
1 0
100 1.0
J11 5
0 0
5 0
6 0
1 0
100 1.0
J12 5
0 0
6 0
7 0
1 0
100 1.0
J13 5
0 0
7 0
8 0
1 0
100 1.0
J14 5
0 0
8 0
9 0
1 0
100 1.0
J15 5
0 0
9 0
10 0
1 0
100 1.0
J16 5
0 0
10 0
11 0
1 0
100 1.0
J17 5
0 0
11 0
12 0
1 0
100 1.0
J18 5
0 0
12 0
1 0
13 0
100 1.0
J19 5
0 0
1 0
13 0
14 0
100 1.0
J20 5
0 0
1 0
14 0
15 0
100 1.0
J21 5
0 0
1 0
15 0
16 0
100 1.0
J22 5
0 0
1 0
16 0
17 0
100 1.0
J23 5
0 0
1 0
17 0
18 0
100 1.0
J24 5
0 0
1 0
18 0
19 0
100 1.0
J25 5
0 0
1 0
19 0
20 0
100 1.0
J26 5
0 0
1 0
20 0
21 0
100 1.0
J27 5
0 0
1 0
21 0
22 0
100 1.0
J28 5
0 0
1 0
22 0
23 0
100 1.0
J29 5
0 0
1 0
23 0
24 0
100 1.0
J30 5
0 0
1 0
24 0
25 0
100 1.0
J31 5
0 0
1 0
25 0
26 0
100 1.0
J32 5
0 0
1 0
26 0
27 0
100 1.0
J33 5
0 0
1 0
27 0
28 0
100 1.0
J34 5
0 0
1 0
28 0
29 0
100 1.0
J35 5
0 0
1 0
29 0
30 0
100 1.0
J36 5
0 0
1 0
30 0
31 0
100 1.0
J37 5
0 0
1 0
31 0
32 0
100 1.0
J38 5
0 0
1 0
32 0
34 0
100 1.0
J39 5
0 0
1 0
34 0
35 0
100 1.0
J40 5
0 0
1 0
35 0
36 0
100 1.0
J41 5
0 0
1 0
36 0
37 0
100 1.0
J42 5
0 0
1 0
37 0
38 0
100 1.0
J43 5
0 0
1 0
38 0
39 0
100 1.0
J44 5
0 0
1 0
39 0
40 0
100 1.0
J45 5
0 0
1 0
40 0
41 0
100 1.0
J46 5
0 0
1 0
41 0
42 0
100 1.0
J47 5
0 0
1 0
42 0
43 0
100 1.0
J48 5
0 0
1 0
43 0
45 0
100 1.0
J49 5
0 0
1 0
45 0
46 0
100 1.0
J50 5
0 0
1 0
46 0
47 0
100 1.0
J51 5
0 0
1 0
47 0
48 0
100 1.0
J52 5
0 0
1 0
48 0
49 0
100 1.0
J53 5
0 0
1 0
49 0
50 0
100 1.0
J54 5
0 0
1 0
50 0
51 0
100 1.0
J55 5
0 0
1 0
51 0
52 0
100 1.0
J56 5
0 0
1 0
52 0
53 0
100 1.0
J57 5
0 0
1 0
53 0
54 0
100 1.0
J58 5
0 0
1 0
54 0
56 0
100 1.0
J59 5
0 0
1 0
56 0
57 0
100 1.0
J60 5
0 0
1 0
57 0
58 0
100 1.0
J61 5
0 0
1 0
58 0
59 0
100 1.0
J62 5
0 0
1 0
59 0
60 0
100 1.0
J63 5
0 0
1 0
60 0
61 0
100 1.0
J64 5
0 0
1 0
61 0
62 0
100 1.0
J65 5
0 0
1 0
62 0
63 0
100 1.0
J66 5
0 0
1 0
63 0
64 0
100 1.0
J67 5
0 0
1 0
64 0
65 0
100 1.0
J68 5
0 0
1 0
65 0
67 0
100 1.0
J69 5
0 0
1 0
67 0
68 0
100 1.0
J70 5
0 0
1 0
68 0
69 0
100 1.0
J71 5
0 0
1 0
69 0
70 0
100 1.0
J72 5
0 0
1 0
70 0
71 0
100 1.0
J73 5
0 0
1 0
71 0
72 0
100 1.0
J74 5
0 0
1 0
72 0
73 0
100 1.0
J75 5
0 0
1 0
73 0
74 0
100 1.0
J76 5
0 0
1 0
74 0
75 0
100 1.0
J77 5
0 0
1 0
75 0
76 0
100 1.0
J78 5
0 0
1 0
76 0
78 0
100 1.0
J79 5
0 0
1 0
78 0
79 0
100 1.0
J80 5
0 0
1 0
79 0
80 0
100 1.0
J81 5
0 0
1 0
80 0
81 0
100 1.0
J82 5
0 0
1 0
81 0
82 0
100 1.0
J83 5
0 0
1 0
82 0
83 0
100 1.0
J84 5
0 0
1 0
83 0
84 0
100 1.0
J85 5
0 0
1 0
84 0
85 0
100 1.0
J86 5
0 0
1 0
85 0
86 0
100 1.0
J87 5
0 0
1 0
86 0
87 0
100 1.0
J88 5
0 0
1 0
87 0
89 0
100 1.0
J89 5
0 0
1 0
89 0
90 0
100 1.0
J90 5
0 0
1 0
90 0
91 0
100 1.0
J91 5
0 0
1 0
91 0
92 0
100 1.0
J92 5
0 0
1 0
92 0
93 0
100 1.0
J93 5
0 0
1 0
93 0
94 0
100 1.0
J94 5
0 0
1 0
94 0
95 0
100 1.0
J95 5
0 0
1 0
95 0
96 0
100 1.0
J96 5
0 0
1 0
96 0
97 0
100 1.0
J97 5
0 0
1 0
97 0
98 0
100 1.0
J98 4
0 0
1 0
98 0
100 1.0
J99 1
1 0
J100 1
2 0
J101 1
33 0
J102 1
44 0
J103 1
55 0
J104 1
66 0
J105 1
77 0
J106 1
88 0
J107 1
99 0
J108 1
3 0
J109 1
4 0
J110 1
5 0
J111 1
6 0
J112 1
7 0
J113 1
8 0
J114 1
9 0
J115 1
10 0
J116 1
11 0
J117 1
12 0
J118 1
13 0
J119 1
14 0
J120 1
15 0
J121 1
16 0
J122 1
17 0
J123 1
18 0
J124 1
19 0
J125 1
20 0
J126 1
21 0
J127 1
22 0
J128 1
23 0
J129 1
24 0
J130 1
25 0
J131 1
26 0
J132 1
27 0
J133 1
28 0
J134 1
29 0
J135 1
30 0
J136 1
31 0
J137 1
32 0
J138 1
34 0
J139 1
35 0
J140 1
36 0
J141 1
37 0
J142 1
38 0
J143 1
39 0
J144 1
40 0
J145 1
41 0
J146 1
42 0
J147 1
43 0
J148 1
45 0
J149 1
46 0
J150 1
47 0
J151 1
48 0
J152 1
49 0
J153 1
50 0
J154 1
51 0
J155 1
52 0
J156 1
53 0
J157 1
54 0
J158 1
56 0
J159 1
57 0
J160 1
58 0
J161 1
59 0
J162 1
60 0
J163 1
61 0
J164 1
62 0
J165 1
63 0
J166 1
64 0
J167 1
65 0
J168 1
67 0
J169 1
68 0
J170 1
69 0
J171 1
70 0
J172 1
71 0
J173 1
72 0
J174 1
73 0
J175 1
74 0
J176 1
75 0
J177 1
76 0
J178 1
78 0
J179 1
79 0
J180 1
80 0
J181 1
81 0
J182 1
82 0
J183 1
83 0
J184 1
84 0
J185 1
85 0
J186 1
86 0
J187 1
87 0
J188 1
89 0
J189 1
90 0
J190 1
91 0
J191 1
92 0
J192 1
93 0
J193 1
94 0
J194 1
95 0
J195 1
96 0
J196 1
97 0
J197 1
98 0
J198 1
0 0
J199 2
0 0
1 0
G0 4
0 0
1 0
2 0
100 0
